50, 665
16, 16
21, 21
45, 45
21, 21
6, 6
14, 14
16, 16
37, 37
2, 2
27, 27
47, 47
5, 5
30, 30
19, 19
35, 35
38, 38
22, 22
31, 31
49, 49
50, 50
39, 39
14, 14
39, 39
27, 27
19, 19
45, 45
4, 4
46, 46
22, 22
41, 41
30, 30
34, 34
36, 36
22, 22
43, 43
34, 34
16, 16
38, 38
32, 32
10, 10
36, 36
29, 29
43, 43
18, 18
3, 3
20, 20
1, 1
4, 4
16, 16
38, 38
